# IMPORTANT - THE STAGES ARE ASSUMED TO BE IN TIME-ORDER.

set Stages := FirstStage SecondStage ThirdStage;

set Nodes := RootNode 
             
             ANode
             BNode 
             CNode 
             
             AANode
             ABNode
             ACNode
             
             BANode
             BBNode
             BCNode
             
             CANode
             CBNode
             CCNode             
             ;

param NodeStage := RootNode FirstStage 
                   
                   ANode    SecondStage
                   BNode    SecondStage 
                   CNode    SecondStage
                    
                   AANode   ThirdStage
                   ABNode   ThirdStage 
                   ACNode   ThirdStage                    
                   BANode   ThirdStage
                   BBNode   ThirdStage 
                   BCNode   ThirdStage
                   CANode   ThirdStage
                   CBNode   ThirdStage 
                   CCNode   ThirdStage                   
                   ;

set Children[RootNode] := ANode 
                          BNode 
                          CNode;
                          
set Children[ANode] :=    AANode 
                          ABNode 
                          ACNode;

set Children[BNode] :=    BANode 
                          BBNode 
                          BCNode;

set Children[CNode] :=    CANode 
                          CBNode 
                          CCNode;
                          
param ConditionalProbability := RootNode 1.0
                                
                                ANode    0.3
                                BNode    0.4
                                CNode    0.3
                                
                               AANode   0.2
                               ABNode   0.5
                               ACNode   0.3
                                                   
                               BANode   0.3
                               BBNode   0.4 
                               BCNode   0.3
                               
                               CANode   0.4
                               CBNode   0.4 
                               CCNode   0.2;

set Scenarios := AAScenario 
                 ABScenario 
                 ACScenario
                 BAScenario
                 BBScenario
                 BCScenario
                 CAScenario
                 CBScenario
                 CCScenario
                  ;

param ScenarioLeafNode := 
                 AAScenario AANode 
                 ABScenario ABNode
                 ACScenario ACNode
                 BAScenario BANode
                 BBScenario BBNode
                 BCScenario BCNode
                 CAScenario CANode
                 CBScenario CBNode
                 CCScenario CCNode;

set StageVariables[FirstStage] :=  x[*,*];
set StageVariables[SecondStage] := y[*,1];
set StageVariables[ThirdStage]  := y[*,2];

param StageCost := FirstStage  FirstStageCost
                   SecondStage LaterStageCost[1]
                   ThirdStage  LaterStageCost[2];
                   
param ScenarioBasedData := True ;
